c Sudoku solution
p cnf 729 0
139 0
158 0
241 0
316 0
328 0
367 0
381 0
399 0
422 0
464 0
497 0
511 0
121 0
553 0
584 0
614 0
626 0
647 0
659 0
269 0
727 0
537 0
756 0
793 0
862 0
542 0
889 0
929 0
749 0
419 0
525 0
579 0
936 0
943 0
163 0
146 0
566 0
598 0
982 0
875 0
788 0
896 0
977 0
857 0
831 0
278 0
476 0
451 0
286 0
373 0
187 0
217 0
813 0
824 0
918 0
774 0
991 0
761 0
848 0
954 0
965 0
223 0
344 0
234 0
445 0
668 0
483 0
685 0
438 0
633 0
671 0
692 0
172 0
295 0
194 0
115 0
332 0
252 0
355 0
712 0
735 0
